p cnf 7230 17
5509 5541 5571 5777 5779 -6035 0
-5541 -6036 0
-5509 -6036 0
-5571 -6036 0
-5905 6030 0
-5777 -6036 0
6035 6036 0
6033 6034 0
5909 -6034 0
-5909 -6033 0
6031 6032 0
5907 -6032 0
-5907 -6031 0
-5779 -6036 0
-6029 -6030 0
-5541 -6038 0
6029 6030 0
